rcpsp/heur_output_bi_constraints/Log=5/heurj90.txt
encoding rcpsp/j90.sm/j9035_5.sm nv: 513252 nc: 1236390 enctime: 19.65
encoding rcpsp/j90.sm/j9035_5.sm nv: 90630 nc: 214832 enctime: 1.09
c File: j9035_5.smnaivebi5.wcnf
c optimal
c final solution cost: 90
c CPU time: 4.042667
s OPTIMUM FOUND

c File: j9035_5.smbi5.wcnf
c optimal
c final solution cost: 90
c CPU time: 0.254763
s OPTIMUM FOUND


rcpsp/heur_output_bi_constraints/Log=5/heurj90.txt
encoding rcpsp/j90.sm/j9035_6.sm nv: 501228 nc: 1154526 enctime: 16.39
encoding rcpsp/j90.sm/j9035_6.sm nv: 81081 nc: 183759 enctime: 0.91
c File: j9035_6.smnaivebi5.wcnf
c optimal
c final solution cost: 66
c CPU time: 4.247673
s OPTIMUM FOUND

c File: j9035_6.smbi5.wcnf
c optimal
c final solution cost: 66
c CPU time: 0.207061
s OPTIMUM FOUND


rcpsp/heur_output_bi_constraints/Log=5/heurj90.txt
encoding rcpsp/j90.sm/j9035_7.sm nv: 434250 nc: 1001598 enctime: 14.10
encoding rcpsp/j90.sm/j9035_7.sm nv: 82025 nc: 186553 enctime: 1.38
c File: j9035_7.smnaivebi5.wcnf
c optimal
c final solution cost: 75
c CPU time: 3.091531
s OPTIMUM FOUND

c File: j9035_7.smbi5.wcnf
c optimal
c final solution cost: 75
c CPU time: 0.280065
s OPTIMUM FOUND


rcpsp/heur_output_bi_constraints/Log=5/heurj90.txt
encoding rcpsp/j90.sm/j9035_8.sm nv: 493136 nc: 1135576 enctime: 15.77
encoding rcpsp/j90.sm/j9035_8.sm nv: 83916 nc: 190341 enctime: 1.44
c File: j9035_8.smnaivebi5.wcnf
c optimal
c final solution cost: 78
c CPU time: 3.204275
s OPTIMUM FOUND

c File: j9035_8.smbi5.wcnf
c optimal
c final solution cost: 78
c CPU time: 0.208147
s OPTIMUM FOUND


rcpsp/heur_output_bi_constraints/Log=5/heurj90.txt
encoding rcpsp/j90.sm/j9035_9.sm nv: 476844 nc: 1095570 enctime: 15.50
encoding rcpsp/j90.sm/j9035_9.sm nv: 78468 nc: 177246 enctime: 1.36
c File: j9035_9.smnaivebi5.wcnf
c optimal
c final solution cost: 76
c CPU time: 3.356767
s OPTIMUM FOUND

c File: j9035_9.smbi5.wcnf
c optimal
c final solution cost: 76
c CPU time: 0.195156
s OPTIMUM FOUND


rcpsp/heur_output_bi_constraints/Log=5/heurj90.txt
encoding rcpsp/j90.sm/j903_5.sm nv: 687659 nc: 1517713 enctime: 18.03
encoding rcpsp/j90.sm/j903_5.sm nv: 104027 nc: 226465 enctime: 1.09
c File: j903_5.smnaivebi5.wcnf
c optimal
c final solution cost: 75
c CPU time: 3.353418
s OPTIMUM FOUND

c File: j903_5.smbi5.wcnf
c optimal
c final solution cost: 75
c CPU time: 0.226446
s OPTIMUM FOUND


rcpsp/heur_output_bi_constraints/Log=5/heurj90.txt
encoding rcpsp/j90.sm/j9036_10.sm nv: 594868 nc: 1360025 enctime: 18.75
encoding rcpsp/j90.sm/j9036_10.sm nv: 126468 nc: 286025 enctime: 2.07
c File: j9036_10.smnaivebi5.wcnf
c optimal
c final solution cost: 93
c CPU time: 3.795894
s OPTIMUM FOUND

c File: j9036_10.smbi5.wcnf
c optimal
c final solution cost: 93
c CPU time: 0.329083
s OPTIMUM FOUND


rcpsp/heur_output_bi_constraints/Log=5/heurj90.txt
encoding rcpsp/j90.sm/j9036_1.sm nv: 493188 nc: 1105519 enctime: 14.20
encoding rcpsp/j90.sm/j9036_1.sm nv: 131742 nc: 293068 enctime: 2.54
c File: j9036_1.smnaivebi5.wcnf
c optimal
c final solution cost: 81
c CPU time: 2.955486
s OPTIMUM FOUND

c File: j9036_1.smbi5.wcnf
c optimal
c final solution cost: 81
c CPU time: 0.384438
s OPTIMUM FOUND


rcpsp/heur_output_bi_constraints/Log=5/heurj90.txt
encoding rcpsp/j90.sm/j9036_2.sm nv: 529830 nc: 1251655 enctime: 18.90
encoding rcpsp/j90.sm/j9036_2.sm nv: 116725 nc: 272413 enctime: 2.04
c File: j9036_2.smnaivebi5.wcnf
c optimal
c final solution cost: 112
c CPU time: 3.835876
s OPTIMUM FOUND

c File: j9036_2.smbi5.wcnf
c optimal
c final solution cost: 112
c CPU time: 0.338002
s OPTIMUM FOUND


rcpsp/heur_output_bi_constraints/Log=5/heurj90.txt
encoding rcpsp/j90.sm/j9036_3.sm nv: 656370 nc: 1479583 enctime: 19.78
encoding rcpsp/j90.sm/j9036_3.sm nv: 109395 nc: 243258 enctime: 1.80
c File: j9036_3.smnaivebi5.wcnf
c optimal
c final solution cost: 79
c CPU time: 3.928647
s OPTIMUM FOUND

c File: j9036_3.smbi5.wcnf
c optimal
c final solution cost: 79
c CPU time: 0.256965
s OPTIMUM FOUND


rcpsp/heur_output_bi_constraints/Log=5/heurj90.txt
encoding rcpsp/j90.sm/j9036_4.sm nv: 548948 nc: 1230436 enctime: 16.32
encoding rcpsp/j90.sm/j9036_4.sm nv: 91884 nc: 203012 enctime: 1.49
c File: j9036_4.smnaivebi5.wcnf
c optimal
c final solution cost: 74
c CPU time: 3.368449
s OPTIMUM FOUND

c File: j9036_4.smbi5.wcnf
c optimal
c final solution cost: 74
c CPU time: 0.216519
s OPTIMUM FOUND


rcpsp/heur_output_bi_constraints/Log=5/heurj90.txt
encoding rcpsp/j90.sm/j9036_5.sm nv: 590336 nc: 1355397 enctime: 19.33
encoding rcpsp/j90.sm/j9036_5.sm nv: 114147 nc: 258882 enctime: 1.34
c File: j9036_5.smnaivebi5.wcnf
c optimal
c final solution cost: 98
c CPU time: 3.798333
s OPTIMUM FOUND

c File: j9036_5.smbi5.wcnf
c optimal
c final solution cost: 98
c CPU time: 0.263345
s OPTIMUM FOUND


rcpsp/heur_output_bi_constraints/Log=5/heurj90.txt
encoding rcpsp/j90.sm/j9036_6.sm nv: 623570 nc: 1390647 enctime: 18.50
encoding rcpsp/j90.sm/j9036_6.sm nv: 127000 nc: 280207 enctime: 1.45
c File: j9036_6.smnaivebi5.wcnf
c optimal
c final solution cost: 96
c CPU time: 3.813110
s OPTIMUM FOUND

c File: j9036_6.smbi5.wcnf
c optimal
c final solution cost: 96
c CPU time: 0.338000
s OPTIMUM FOUND


rcpsp/heur_output_bi_constraints/Log=5/heurj90.txt
encoding rcpsp/j90.sm/j9036_7.sm nv: 571206 nc: 1307280 enctime: 17.86
encoding rcpsp/j90.sm/j9036_7.sm nv: 107818 nc: 243548 enctime: 1.80
c File: j9036_7.smnaivebi5.wcnf
c optimal
c final solution cost: 87
c CPU time: 3.656828
s OPTIMUM FOUND

c File: j9036_7.smbi5.wcnf
c optimal
c final solution cost: 87
c CPU time: 0.264971
s OPTIMUM FOUND


rcpsp/heur_output_bi_constraints/Log=5/heurj90.txt
encoding rcpsp/j90.sm/j9036_8.sm nv: 606528 nc: 1350903 enctime: 17.38
encoding rcpsp/j90.sm/j9036_8.sm nv: 112752 nc: 248289 enctime: 1.76
c File: j9036_8.smnaivebi5.wcnf
c optimal
c final solution cost: 79
c CPU time: 3.514298
s OPTIMUM FOUND

c File: j9036_8.smbi5.wcnf
c optimal
c final solution cost: 79
c CPU time: 0.295100
s OPTIMUM FOUND


rcpsp/heur_output_bi_constraints/Log=5/heurj90.txt
encoding rcpsp/j90.sm/j9036_9.sm nv: 633920 nc: 1481126 enctime: 22.19
encoding rcpsp/j90.sm/j9036_9.sm nv: 116596 nc: 268705 enctime: 1.37
c File: j9036_9.smnaivebi5.wcnf
c optimal
c final solution cost: 97
c CPU time: 4.490130
s OPTIMUM FOUND

c File: j9036_9.smbi5.wcnf
c optimal
c final solution cost: 97
c CPU time: 0.328602
s OPTIMUM FOUND


rcpsp/heur_output_bi_constraints/Log=5/heurj90.txt
encoding rcpsp/j90.sm/j903_6.sm nv: 502320 nc: 1117111 enctime: 13.14
encoding rcpsp/j90.sm/j903_6.sm nv: 82992 nc: 182071 enctime: 0.89
c File: j903_6.smnaivebi5.wcnf
c optimal
c final solution cost: 61
c CPU time: 2.815999
s OPTIMUM FOUND

c File: j903_6.smbi5.wcnf
c optimal
c final solution cost: 61
c CPU time: 0.235821
s OPTIMUM FOUND


rcpsp/heur_output_bi_constraints/Log=5/heurj90.txt
encoding rcpsp/j90.sm/j9037_10.sm nv: 902272 nc: 2009920 enctime: 24.37
encoding rcpsp/j90.sm/j9037_10.sm nv: 286624 nc: 635602 enctime: 4.24
c File: j9037_10.smnaivebi5.wcnf
c timeout
c final solution cost: 123
c CPU time: 64.115224
s UNKNOWN

c File: j9037_10.smbi5.wcnf
c timeout
c final solution cost: 122
c CPU time: 60.678726
s UNKNOWN


rcpsp/heur_output_bi_constraints/Log=5/heurj90.txt
encoding rcpsp/j90.sm/j9037_1.sm nv: 980720 nc: 2152781 enctime: 25.08
encoding rcpsp/j90.sm/j9037_1.sm nv: 292330 nc: 638761 enctime: 4.98
c File: j9037_1.smnaivebi5.wcnf
c timeout
c final solution cost: 115
c CPU time: 64.088973
s UNKNOWN

c File: j9037_1.smbi5.wcnf
c timeout
c final solution cost: 113
c CPU time: 60.634338
s UNKNOWN


rcpsp/heur_output_bi_constraints/Log=5/heurj90.txt
encoding rcpsp/j90.sm/j9037_2.sm nv: 890500 nc: 1955021 enctime: 22.84
encoding rcpsp/j90.sm/j9037_2.sm nv: 265369 nc: 579803 enctime: 3.87
c File: j9037_2.smnaivebi5.wcnf
c timeout
c final solution cost: 118
c CPU time: 63.684284
s UNKNOWN

c File: j9037_2.smbi5.wcnf
c timeout
c final solution cost: 115
c CPU time: 60.590794
s UNKNOWN


rcpsp/heur_output_bi_constraints/Log=5/heurj90.txt
encoding rcpsp/j90.sm/j9037_3.sm nv: 779475 nc: 1717739 enctime: 20.40
encoding rcpsp/j90.sm/j9037_3.sm nv: 300303 nc: 659531 enctime: 5.25
c File: j9037_3.smnaivebi5.wcnf
c timeout
c final solution cost: 129
c CPU time: 63.278739
s UNKNOWN

c File: j9037_3.smbi5.wcnf
c optimal
c final solution cost: 129
c CPU time: 54.416347
s OPTIMUM FOUND


rcpsp/heur_output_bi_constraints/Log=5/heurj90.txt
encoding rcpsp/j90.sm/j9037_4.sm nv: 845894 nc: 1882953 enctime: 22.94
encoding rcpsp/j90.sm/j9037_4.sm nv: 279243 nc: 618832 enctime: 4.98
c File: j9037_4.smnaivebi5.wcnf
c timeout
c final solution cost: 127
c CPU time: 63.878206
s UNKNOWN

c File: j9037_4.smbi5.wcnf
c timeout
c final solution cost: 124
c CPU time: 60.679551
s UNKNOWN


rcpsp/heur_output_bi_constraints/Log=5/heurj90.txt
encoding rcpsp/j90.sm/j9037_5.sm nv: 771210 nc: 1717296 enctime: 20.96
encoding rcpsp/j90.sm/j9037_5.sm nv: 252396 nc: 559455 enctime: 4.54
c File: j9037_5.smnaivebi5.wcnf
c timeout
c final solution cost: 141
c CPU time: 63.667267
s UNKNOWN

c File: j9037_5.smbi5.wcnf
c timeout
c final solution cost: 134
c CPU time: 60.594350
s UNKNOWN


rcpsp/heur_output_bi_constraints/Log=5/heurj90.txt
encoding rcpsp/j90.sm/j9037_6.sm nv: 952590 nc: 2137166 enctime: 27.14
encoding rcpsp/j90.sm/j9037_6.sm nv: 283065 nc: 631821 enctime: 4.33
c File: j9037_6.smnaivebi5.wcnf
c timeout
c final solution cost: 183
c CPU time: 64.545756
s UNKNOWN

c File: j9037_6.smbi5.wcnf
c timeout
c final solution cost: 128
c CPU time: 60.664652
s UNKNOWN


rcpsp/heur_output_bi_constraints/Log=5/heurj90.txt
encoding rcpsp/j90.sm/j9037_7.sm nv: 793638 nc: 1752718 enctime: 21.06
encoding rcpsp/j90.sm/j9037_7.sm nv: 272711 nc: 599852 enctime: 4.80
c File: j9037_7.smnaivebi5.wcnf
c timeout
c final solution cost: 123
c CPU time: 63.439585
s UNKNOWN

c File: j9037_7.smbi5.wcnf
c timeout
c final solution cost: 120
c CPU time: 60.653097
s UNKNOWN


rcpsp/heur_output_bi_constraints/Log=5/heurj90.txt
encoding rcpsp/j90.sm/j9037_8.sm nv: 893944 nc: 1984955 enctime: 24.44
encoding rcpsp/j90.sm/j9037_8.sm nv: 266136 nc: 588027 enctime: 4.05
c File: j9037_8.smnaivebi5.wcnf
c timeout
c final solution cost: 124
c CPU time: 63.962764
s UNKNOWN

c File: j9037_8.smbi5.wcnf
c timeout
c final solution cost: 122
c CPU time: 60.608738
s UNKNOWN


rcpsp/heur_output_bi_constraints/Log=5/heurj90.txt
encoding rcpsp/j90.sm/j9037_9.sm nv: 754929 nc: 1671391 enctime: 20.75
encoding rcpsp/j90.sm/j9037_9.sm nv: 264147 nc: 582439 enctime: 4.06
c File: j9037_9.smnaivebi5.wcnf
c timeout
c final solution cost: 127
c CPU time: 63.474833
s UNKNOWN

c File: j9037_9.smbi5.wcnf
c timeout
c final solution cost: 126
c CPU time: 60.645110
s UNKNOWN


rcpsp/heur_output_bi_constraints/Log=5/heurj90.txt
encoding rcpsp/j90.sm/j903_7.sm nv: 428230 nc: 967720 enctime: 12.49
encoding rcpsp/j90.sm/j903_7.sm nv: 75735 nc: 168480 enctime: 0.81
c File: j903_7.smnaivebi5.wcnf
c optimal
c final solution cost: 67
c CPU time: 2.548982
s OPTIMUM FOUND

c File: j903_7.smbi5.wcnf
c optimal
c final solution cost: 67
c CPU time: 0.232171
s OPTIMUM FOUND


rcpsp/heur_output_bi_constraints/Log=5/heurj90.txt
encoding rcpsp/j90.sm/j9038_10.sm nv: 1237021 nc: 2633929 enctime: 28.32
encoding rcpsp/j90.sm/j9038_10.sm nv: 272690 nc: 577675 enctime: 3.79
c File: j9038_10.smnaivebi5.wcnf
c optimal
c final solution cost: 92
c CPU time: 17.930313
s OPTIMUM FOUND

c File: j9038_10.smbi5.wcnf
c optimal
c final solution cost: 92
c CPU time: 0.934718
s OPTIMUM FOUND


rcpsp/heur_output_bi_constraints/Log=5/heurj90.txt
encoding rcpsp/j90.sm/j9038_1.sm nv: 1357056 nc: 2867438 enctime: 29.53
encoding rcpsp/j90.sm/j9038_1.sm nv: 268128 nc: 563416 enctime: 3.67
c File: j9038_1.smnaivebi5.wcnf
c optimal
c final solution cost: 79
c CPU time: 10.231081
s OPTIMUM FOUND

c File: j9038_1.smbi5.wcnf
c optimal
c final solution cost: 79
c CPU time: 2.374214
s OPTIMUM FOUND


rcpsp/heur_output_bi_constraints/Log=5/heurj90.txt
encoding rcpsp/j90.sm/j9038_2.sm nv: 1358970 nc: 2849935 enctime: 27.99
encoding rcpsp/j90.sm/j9038_2.sm nv: 232800 nc: 485365 enctime: 3.18
c File: j9038_2.smnaivebi5.wcnf
c optimal
c final solution cost: 75
c CPU time: 5.685836
s OPTIMUM FOUND

c File: j9038_2.smbi5.wcnf
c optimal
c final solution cost: 75
c CPU time: 0.570069
s OPTIMUM FOUND


rcpsp/heur_output_bi_constraints/Log=5/heurj90.txt
encoding rcpsp/j90.sm/j9038_3.sm nv: 1394540 nc: 2939271 enctime: 29.60
encoding rcpsp/j90.sm/j9038_3.sm nv: 301676 nc: 632967 enctime: 4.06
c File: j9038_3.smnaivebi5.wcnf
c optimal
c final solution cost: 87
c CPU time: 10.133787
s OPTIMUM FOUND

c File: j9038_3.smbi5.wcnf
c optimal
c final solution cost: 87
c CPU time: 2.884496
s OPTIMUM FOUND


rcpsp/heur_output_bi_constraints/Log=5/heurj90.txt
encoding rcpsp/j90.sm/j9038_4.sm nv: 1354197 nc: 2872199 enctime: 29.70
encoding rcpsp/j90.sm/j9038_4.sm nv: 261758 nc: 551942 enctime: 3.61
c File: j9038_4.smnaivebi5.wcnf
c optimal
c final solution cost: 84
c CPU time: 11.310627
s OPTIMUM FOUND

c File: j9038_4.smbi5.wcnf
c optimal
c final solution cost: 84
c CPU time: 1.895348
s OPTIMUM FOUND


rcpsp/heur_output_bi_constraints/Log=5/heurj90.txt
encoding rcpsp/j90.sm/j9038_5.sm nv: 1308918 nc: 2792882 enctime: 29.48
encoding rcpsp/j90.sm/j9038_5.sm nv: 272376 nc: 578003 enctime: 3.77
c File: j9038_5.smnaivebi5.wcnf
c optimal
c final solution cost: 84
c CPU time: 36.612758
s OPTIMUM FOUND

c File: j9038_5.smbi5.wcnf
c optimal
c final solution cost: 84
c CPU time: 32.330668
s OPTIMUM FOUND


rcpsp/heur_output_bi_constraints/Log=5/heurj90.txt
encoding rcpsp/j90.sm/j9038_6.sm nv: 1362843 nc: 2873010 enctime: 29.76
encoding rcpsp/j90.sm/j9038_6.sm nv: 284274 nc: 596289 enctime: 3.91
c File: j9038_6.smnaivebi5.wcnf
c optimal
c final solution cost: 83
c CPU time: 20.998072
s OPTIMUM FOUND

c File: j9038_6.smbi5.wcnf
c optimal
c final solution cost: 83
c CPU time: 9.503768
s OPTIMUM FOUND


rcpsp/heur_output_bi_constraints/Log=5/heurj90.txt
encoding rcpsp/j90.sm/j9038_7.sm nv: 1380954 nc: 2914426 enctime: 30.24
encoding rcpsp/j90.sm/j9038_7.sm nv: 266208 nc: 558706 enctime: 3.71
c File: j9038_7.smnaivebi5.wcnf
c optimal
c final solution cost: 74
c CPU time: 9.442624
s OPTIMUM FOUND

c File: j9038_7.smbi5.wcnf
c optimal
c final solution cost: 74
c CPU time: 2.653407
s OPTIMUM FOUND


rcpsp/heur_output_bi_constraints/Log=5/heurj90.txt
encoding rcpsp/j90.sm/j9038_8.sm nv: 1574720 nc: 3329796 enctime: 35.17
encoding rcpsp/j90.sm/j9038_8.sm nv: 304880 nc: 641253 enctime: 4.34
c File: j9038_8.smnaivebi5.wcnf
c optimal
c final solution cost: 87
c CPU time: 11.778372
s OPTIMUM FOUND

c File: j9038_8.smbi5.wcnf
c optimal
c final solution cost: 87
c CPU time: 2.367698
s OPTIMUM FOUND


rcpsp/heur_output_bi_constraints/Log=5/heurj90.txt
encoding rcpsp/j90.sm/j9038_9.sm nv: 1376331 nc: 2944303 enctime: 33.02
encoding rcpsp/j90.sm/j9038_9.sm nv: 269115 nc: 572191 enctime: 3.95
c File: j9038_9.smnaivebi5.wcnf
c optimal
c final solution cost: 85
c CPU time: 15.201650
s OPTIMUM FOUND

c File: j9038_9.smbi5.wcnf
c optimal
c final solution cost: 85
c CPU time: 2.230449
s OPTIMUM FOUND


rcpsp/heur_output_bi_constraints/Log=5/heurj90.txt
encoding rcpsp/j90.sm/j903_8.sm nv: 501486 nc: 1141845 enctime: 14.95
encoding rcpsp/j90.sm/j903_8.sm nv: 79553 nc: 178145 enctime: 1.37
c File: j903_8.smnaivebi5.wcnf
c optimal
c final solution cost: 63
c CPU time: 3.680360
s OPTIMUM FOUND

c File: j903_8.smbi5.wcnf
c optimal
c final solution cost: 63
c CPU time: 0.206739
s OPTIMUM FOUND


rcpsp/heur_output_bi_constraints/Log=5/heurj90.txt
encoding rcpsp/j90.sm/j9039_10.sm nv: 1652510 nc: 3463336 enctime: 36.36
encoding rcpsp/j90.sm/j9039_10.sm nv: 337575 nc: 704222 enctime: 4.79
c File: j9039_10.smnaivebi5.wcnf
c optimal
c final solution cost: 93
c CPU time: 7.372045
s OPTIMUM FOUND

c File: j9039_10.smbi5.wcnf
c optimal
c final solution cost: 93
c CPU time: 0.983292
s OPTIMUM FOUND


